p cnf 181 509 
-1 2 5 0 
-1 -2 -5 0 
-2 1 17 0 
-17 3 18 0 
-2 -1 -3 0 
-2 -1 -6 0 
-2 -3 -6 0 
-3 2 19 0 
-19 4 20 0 
-3 -2 -4 0 
-3 -2 -7 0 
-3 -4 -7 0 
-4 3 8 0 
-4 -3 -8 0 
-5 9 21 0 
-21 6 22 0 
-5 -9 -6 0 
-5 -9 -1 0 
-5 -6 -1 0 
-6 -2 -5 0 
-6 -2 -7 0 
-6 -2 -10 0 
-6 2 23 0 
-23 5 24 0 
-24 7 25 0 
-6 -5 -7 0 
-6 -5 -10 0 
-6 -7 -10 0 
-7 -3 -6 0 
-7 -3 -8 0 
-7 -3 26 0 
-7 -3 -26 0 
-7 -6 -8 0 
-7 -6 27 0 
-7 -6 -27 0 
-7 -8 28 0 
-7 -8 -28 0 
-8 12 29 0 
-29 7 30 0 
-8 -12 -7 0 
-8 -12 -4 0 
-8 -7 -4 0 
-9 13 31 0 
-31 10 32 0 
-9 -13 -10 0 
-9 -13 -5 0 
-9 -10 -5 0 
-10 -6 -9 0 
-10 -6 33 0 
-10 -6 -33 0 
-10 -6 -14 0 
-10 -9 34 0 
-10 -9 -34 0 
-10 -9 -14 0 
-10 -14 35 0 
-10 -14 -35 0 
-7 -10 36 0 
-7 -10 -36 0 
-7 -12 37 0 
-7 -12 -37 0 
-7 -15 38 0 
-7 -15 -38 0 
7 10 39 0 
-39 12 40 0 
-10 -12 41 0 
-10 -12 -41 0 
-10 -15 42 0 
-10 -15 -42 0 
-12 -15 43 0 
-12 -15 -43 0 
-12 -16 44 0 
-12 -16 -44 0 
-12 -16 -8 0 
-12 -8 45 0 
-12 -8 -45 0 
-13 14 9 0 
-13 -14 -9 0 
-14 13 46 0 
-46 15 47 0 
-14 -13 -15 0 
-14 -13 -10 0 
-14 -15 -10 0 
-15 -14 -16 0 
-15 -14 48 0 
-15 -14 -48 0 
-15 -16 49 0 
-15 -16 -49 0 
-16 15 12 0 
-16 -15 -12 0 
1 2 50 0 
-50 4 51 0 
-51 5 52 0 
-52 6 53 0 
-53 8 54 0 
-54 9 55 0 
-55 10 56 0 
-56 12 57 0 
-57 13 58 0 
-58 14 59 0 
1 2 60 0 
-60 4 61 0 
-61 5 62 0 
-62 6 63 0 
-63 8 64 0 
-64 9 65 0 
-65 10 66 0 
-66 12 67 0 
-67 13 68 0 
-68 14 69 0 
1 2 70 0 
-70 4 71 0 
-71 5 72 0 
-72 6 73 0 
-73 8 74 0 
-74 9 75 0 
-75 10 76 0 
-76 12 77 0 
-77 13 78 0 
-78 15 79 0 
1 2 80 0 
-80 4 81 0 
-81 5 82 0 
-82 6 83 0 
-83 8 84 0 
-84 9 85 0 
-85 10 86 0 
-86 12 87 0 
-87 14 88 0 
-88 15 89 0 
1 2 90 0 
-90 4 91 0 
-91 5 92 0 
-92 6 93 0 
-93 8 94 0 
-94 9 95 0 
-95 10 96 0 
-96 13 97 0 
-97 14 98 0 
-98 15 99 0 
1 2 100 0 
-100 4 101 0 
-101 5 102 0 
-102 6 103 0 
-103 8 104 0 
-104 9 105 0 
-105 12 106 0 
-106 13 107 0 
-107 14 108 0 
-108 15 109 0 
1 2 110 0 
-110 4 111 0 
-111 5 112 0 
-112 6 113 0 
-113 8 114 0 
-114 10 115 0 
-115 12 116 0 
-116 13 117 0 
-117 14 118 0 
-118 15 119 0 
1 2 120 0 
-120 4 121 0 
-121 5 122 0 
-122 6 123 0 
-123 9 124 0 
-124 10 125 0 
-125 12 126 0 
-126 13 127 0 
-127 14 128 0 
-128 15 129 0 
1 2 130 0 
-130 4 131 0 
-131 5 132 0 
-132 8 133 0 
-133 9 134 0 
-134 10 135 0 
-135 12 136 0 
-136 13 137 0 
-137 14 138 0 
-138 15 139 0 
1 2 140 0 
-140 4 141 0 
-141 6 142 0 
-142 8 143 0 
-143 9 144 0 
-144 10 145 0 
-145 12 146 0 
-146 13 147 0 
-147 14 148 0 
-148 15 149 0 
1 2 150 0 
-150 5 151 0 
-151 6 152 0 
-152 8 153 0 
-153 9 154 0 
-154 10 155 0 
-155 12 156 0 
-156 13 157 0 
-157 14 158 0 
-158 15 159 0 
1 4 160 0 
-160 5 161 0 
-161 6 162 0 
-162 8 163 0 
-163 9 164 0 
-164 10 165 0 
-165 12 166 0 
-166 13 167 0 
-167 14 168 0 
-168 15 169 0 
2 4 170 0 
-170 5 171 0 
-171 6 172 0 
-172 8 173 0 
-173 9 174 0 
-174 10 175 0 
-175 12 176 0 
-176 13 177 0 
-177 14 178 0 
-178 15 179 0 
-1 -2 -4 0 
-1 -2 -5 0 
-1 -2 -6 0 
-1 -2 -8 0 
-1 -2 -9 0 
-1 -2 -10 0 
-1 -2 -12 0 
-1 -2 -13 0 
-1 -2 -14 0 
-1 -2 -15 0 
-1 -2 -16 0 
-1 -4 -5 0 
-1 -4 -6 0 
-1 -4 -8 0 
-1 -4 -9 0 
-1 -4 -10 0 
-1 -4 -12 0 
-1 -4 -13 0 
-1 -4 -14 0 
-1 -4 -15 0 
-1 -4 -16 0 
-1 -5 -6 0 
-1 -5 -8 0 
-1 -5 -9 0 
-1 -5 -10 0 
-1 -5 -12 0 
-1 -5 -13 0 
-1 -5 -14 0 
-1 -5 -15 0 
-1 -5 -16 0 
-1 -6 -8 0 
-1 -6 -9 0 
-1 -6 -10 0 
-1 -6 -12 0 
-1 -6 -13 0 
-1 -6 -14 0 
-1 -6 -15 0 
-1 -6 -16 0 
-1 -8 -9 0 
-1 -8 -10 0 
-1 -8 -12 0 
-1 -8 -13 0 
-1 -8 -14 0 
-1 -8 -15 0 
-1 -8 -16 0 
-1 -9 -10 0 
-1 -9 -12 0 
-1 -9 -13 0 
-1 -9 -14 0 
-1 -9 -15 0 
-1 -9 -16 0 
-1 -10 -12 0 
-1 -10 -13 0 
-1 -10 -14 0 
-1 -10 -15 0 
-1 -10 -16 0 
-1 -12 -13 0 
-1 -12 -14 0 
-1 -12 -15 0 
-1 -12 -16 0 
-1 -13 -14 0 
-1 -13 -15 0 
-1 -13 -16 0 
-1 -14 -15 0 
-1 -14 -16 0 
-1 -15 -16 0 
-2 -4 -5 0 
-2 -4 -6 0 
-2 -4 -8 0 
-2 -4 -9 0 
-2 -4 -10 0 
-2 -4 -12 0 
-2 -4 -13 0 
-2 -4 -14 0 
-2 -4 -15 0 
-2 -4 -16 0 
-2 -5 -6 0 
-2 -5 -8 0 
-2 -5 -9 0 
-2 -5 -10 0 
-2 -5 -12 0 
-2 -5 -13 0 
-2 -5 -14 0 
-2 -5 -15 0 
-2 -5 -16 0 
-2 -6 -8 0 
-2 -6 -9 0 
-2 -6 -10 0 
-2 -6 -12 0 
-2 -6 -13 0 
-2 -6 -14 0 
-2 -6 -15 0 
-2 -6 -16 0 
-2 -8 -9 0 
-2 -8 -10 0 
-2 -8 -12 0 
-2 -8 -13 0 
-2 -8 -14 0 
-2 -8 -15 0 
-2 -8 -16 0 
-2 -9 -10 0 
-2 -9 -12 0 
-2 -9 -13 0 
-2 -9 -14 0 
-2 -9 -15 0 
-2 -9 -16 0 
-2 -10 -12 0 
-2 -10 -13 0 
-2 -10 -14 0 
-2 -10 -15 0 
-2 -10 -16 0 
-2 -12 -13 0 
-2 -12 -14 0 
-2 -12 -15 0 
-2 -12 -16 0 
-2 -13 -14 0 
-2 -13 -15 0 
-2 -13 -16 0 
-2 -14 -15 0 
-2 -14 -16 0 
-2 -15 -16 0 
-4 -5 -6 0 
-4 -5 -8 0 
-4 -5 -9 0 
-4 -5 -10 0 
-4 -5 -12 0 
-4 -5 -13 0 
-4 -5 -14 0 
-4 -5 -15 0 
-4 -5 -16 0 
-4 -6 -8 0 
-4 -6 -9 0 
-4 -6 -10 0 
-4 -6 -12 0 
-4 -6 -13 0 
-4 -6 -14 0 
-4 -6 -15 0 
-4 -6 -16 0 
-4 -8 -9 0 
-4 -8 -10 0 
-4 -8 -12 0 
-4 -8 -13 0 
-4 -8 -14 0 
-4 -8 -15 0 
-4 -8 -16 0 
-4 -9 -10 0 
-4 -9 -12 0 
-4 -9 -13 0 
-4 -9 -14 0 
-4 -9 -15 0 
-4 -9 -16 0 
-4 -10 -12 0 
-4 -10 -13 0 
-4 -10 -14 0 
-4 -10 -15 0 
-4 -10 -16 0 
-4 -12 -13 0 
-4 -12 -14 0 
-4 -12 -15 0 
-4 -12 -16 0 
-4 -13 -14 0 
-4 -13 -15 0 
-4 -13 -16 0 
-4 -14 -15 0 
-4 -14 -16 0 
-4 -15 -16 0 
-5 -6 -8 0 
-5 -6 -9 0 
-5 -6 -10 0 
-5 -6 -12 0 
-5 -6 -13 0 
-5 -6 -14 0 
-5 -6 -15 0 
-5 -6 -16 0 
-5 -8 -9 0 
-5 -8 -10 0 
-5 -8 -12 0 
-5 -8 -13 0 
-5 -8 -14 0 
-5 -8 -15 0 
-5 -8 -16 0 
-5 -9 -10 0 
-5 -9 -12 0 
-5 -9 -13 0 
-5 -9 -14 0 
-5 -9 -15 0 
-5 -9 -16 0 
-5 -10 -12 0 
-5 -10 -13 0 
-5 -10 -14 0 
-5 -10 -15 0 
-5 -10 -16 0 
-5 -12 -13 0 
-5 -12 -14 0 
-5 -12 -15 0 
-5 -12 -16 0 
-5 -13 -14 0 
-5 -13 -15 0 
-5 -13 -16 0 
-5 -14 -15 0 
-5 -14 -16 0 
-5 -15 -16 0 
-6 -8 -9 0 
-6 -8 -10 0 
-6 -8 -12 0 
-6 -8 -13 0 
-6 -8 -14 0 
-6 -8 -15 0 
-6 -8 -16 0 
-6 -9 -10 0 
-6 -9 -12 0 
-6 -9 -13 0 
-6 -9 -14 0 
-6 -9 -15 0 
-6 -9 -16 0 
-6 -10 -12 0 
-6 -10 -13 0 
-6 -10 -14 0 
-6 -10 -15 0 
-6 -10 -16 0 
-6 -12 -13 0 
-6 -12 -14 0 
-6 -12 -15 0 
-6 -12 -16 0 
-6 -13 -14 0 
-6 -13 -15 0 
-6 -13 -16 0 
-6 -14 -15 0 
-6 -14 -16 0 
-6 -15 -16 0 
-8 -9 -10 0 
-8 -9 -12 0 
-8 -9 -13 0 
-8 -9 -14 0 
-8 -9 -15 0 
-8 -9 -16 0 
-8 -10 -12 0 
-8 -10 -13 0 
-8 -10 -14 0 
-8 -10 -15 0 
-8 -10 -16 0 
-8 -12 -13 0 
-8 -12 -14 0 
-8 -12 -15 0 
-8 -12 -16 0 
-8 -13 -14 0 
-8 -13 -15 0 
-8 -13 -16 0 
-8 -14 -15 0 
-8 -14 -16 0 
-8 -15 -16 0 
-9 -10 -12 0 
-9 -10 -13 0 
-9 -10 -14 0 
-9 -10 -15 0 
-9 -10 -16 0 
-9 -12 -13 0 
-9 -12 -14 0 
-9 -12 -15 0 
-9 -12 -16 0 
-9 -13 -14 0 
-9 -13 -15 0 
-9 -13 -16 0 
-9 -14 -15 0 
-9 -14 -16 0 
-9 -15 -16 0 
-10 -12 -13 0 
-10 -12 -14 0 
-10 -12 -15 0 
-10 -12 -16 0 
-10 -13 -14 0 
-10 -13 -15 0 
-10 -13 -16 0 
-10 -14 -15 0 
-10 -14 -16 0 
-10 -15 -16 0 
-12 -13 -14 0 
-12 -13 -15 0 
-12 -13 -16 0 
-12 -14 -15 0 
-12 -14 -16 0 
-12 -15 -16 0 
-13 -14 -15 0 
-13 -14 -16 0 
-13 -15 -16 0 
-14 -15 -16 0 
3 7 180 0 
3 7 -180 0 
-3 -7 181 0 
-3 -7 -181 0 
